HUN,8,6,671
4,3,5,4,0,95,3,44,1,84,2,37
1,51,2,33,4,12,3,1,0,25,5,28
1,68,2,13,0,89,5,9,3,63,4,57
5,90,0,34,3,80,2,92,4,21,1,12
4,33,3,42,5,25,2,67,1,72,0,72
5,15,2,35,1,30,0,89,4,19,3,68
2,63,1,58,0,16,5,33,3,55,4,89
4,62,1,83,0,78,5,39,2,46,3,32
